python/teste/teste49
4 3
1 6 0 10 2 1
0 6 1 7 2 4
2 10 1 4 0 6
2 3 0 1 1 3
