python/teste/teste49.lp
\ LP format - for model browsing. Use MPS format to capture full model detail.
Minimize
  - 5 x0p + 5 x0n - 5 x1p + 5 x1n - 5 x2p + 5 x2n
Subject To
 constr(0): 5 x0p - 5 x0n + 2 x1p - 2 x1n - 4 x2p + 4 x2n + 3 x3p - 3 x3n
   = 8
 constr(1): 3 x0p - 3 x0n + 5 x1p - 5 x1n + 5 x3p - 5 x3n >= -0
 constr(2): x2p - x2n + 4 x3p - 4 x3n = -0
 constr(3): 5 x0p - 5 x0n - 3 x1p + 3 x1n - 4 x2p + 4 x2n - x3p + x3n
   >= -20
 constr(4): 2 x0p - 2 x0n - 3 x3p + 3 x3n >= -0
Bounds
 x0p <= 3
 x0n <= 1
 x1p = 0
 x1n <= 4
 x2p <= 5
 x2n <= 1
 x3p = 0
 x3n <= 4
Generals
 x0p x0n x1p x1n x2p x2n x3p x3n
End
